NAME : instances/clustered-mixed-tsp/instance-48.tsp
COMMENT : No Comment
TYPE : TSP
DIMENSION: 42
EDGE_WEIGHT_TYPE : EUC_2D
NODE_COORD_SECTION
1 1260 1026 
2 1977 752 
3 688 645 
4 165 1201 
5 1742 1703 
6 1407 442 
7 466 1107 
8 1599 898 
9 1385 1304 
10 1812 432 
11 844 1582 
12 131 1771 
13 1221 1903 
14 1645 200 
15 1011 567 
16 1199 275 
17 1003 569 
18 1825 395 
19 297 696 
20 1426 616 
21 973 459 
22 1340 1054 
23 303 1785 
24 1202 1905 
25 1833 1937 
26 43 949 
27 511 148 
28 1530 752 
29 1963 274 
30 1301 1075 
31 453 835 
32 1548 1679 
33 80 778 
34 672 206 
35 116 571 
36 586 1845 
37 1880 1731 
38 978 243 
39 180 228 
40 558 1640 
41 855 210 
42 1043 1621 
EOF
